\Problem name: 

Minimize
OBJROW: 83 var(1) + 81 var(2) + 113 var(3) + 52 var(4) + 42 var(5) + 73 var(6) + 44 var(7) + 23 var(8) + 91 var(9) + 105 var(10)
 + 90 var(11) + 124 var(12) + 57 var(13) + 83 var(14) + 161 var(16) + 160 var(17) + 39 var(18) + 89 var(19) + 151 var(20) + 110 var(21)
 + 90 var(22) + 99 var(23) + 177 var(24) + 143 var(25) + 193 var(26) + 100 var(27) + 81 var(28) + 161 var(29) + 90 var(31) + 125 var(32)
 + 82 var(33) + 13 var(34) + 57 var(35) + 71 var(36) + 123 var(37) + 38 var(38) + 72 var(39) + 59 var(40) + 82 var(41) + 113 var(42)
 + 160 var(43) + 90 var(44) + 123 var(46) + 77 var(47) + 81 var(48) + 71 var(49) + 91 var(50) + 72 var(51) + 64 var(52) + 24 var(53)
 + 62 var(54) + 63 var(55) + 52 var(56) + 39 var(57) + 125 var(58) + 123 var(59) + 51 var(61) + 114 var(62) + 72 var(63) + 54 var(64)
 + 69 var(65) + 139 var(66) + 105 var(67) + 155 var(68) + 62 var(69) + 42 var(70) + 89 var(71) + 82 var(72) + 77 var(73) + 51 var(74)
 + 70 var(76) + 25 var(77) + 22 var(78) + 52 var(79) + 90 var(80) + 56 var(81) + 105 var(82) + 16 var(83) + 73 var(84) + 151 var(85)
 + 13 var(86) + 81 var(87) + 114 var(88) + 70 var(89) + 45 var(91) + 61 var(92) + 111 var(93) + 36 var(94) + 61 var(95) + 57 var(96)
 + 70 var(97) + 44 var(98) + 110 var(99) + 57 var(100) + 71 var(101) + 72 var(102) + 25 var(103) + 45 var(104) + 23 var(106) + 71 var(107)
 + 67 var(108) + 48 var(109) + 85 var(110) + 29 var(111) + 23 var(112) + 90 var(113) + 71 var(114) + 91 var(115) + 54 var(116) + 22 var(117)
 + 61 var(118) + 23 var(119) + 74 var(121) + 89 var(122) + 69 var(123) + 107 var(124) + 36 var(125) + 91 var(126) + 99 var(127) + 123 var(128)
 + 72 var(129) + 69 var(130) + 52 var(131) + 111 var(132) + 71 var(133) + 74 var(134) + 117 var(136) + 65 var(137) + 125 var(138) + 43 var(139)
 + 105 var(140) + 177 var(141) + 38 var(142) + 64 var(143) + 139 var(144) + 90 var(145) + 36 var(146) + 67 var(147) + 89 var(148) + 117 var(149)
 + 54 var(151) + 22 var(152) + 84 var(153) + 90 var(154) + 143 var(155) + 72 var(156) + 24 var(157) + 105 var(158) + 56 var(159) + 61 var(160)
 + 48 var(161) + 69 var(162) + 65 var(163) + 54 var(164) + 60 var(166) + 44 var(167) + 124 var(168) + 193 var(169) + 59 var(170) + 62 var(171)
 + 155 var(172) + 105 var(173) + 57 var(174) + 85 var(175) + 107 var(176) + 125 var(177) + 22 var(178) + 60 var(179) + 97 var(181) + 57 var(182)
 + 100 var(183) + 82 var(184) + 63 var(185) + 62 var(186) + 16 var(187) + 70 var(188) + 29 var(189) + 36 var(190) + 43 var(191) + 84 var(192)
 + 44 var(193) + 97 var(194)
Subject To
constr(0):  var(1) + var(2) + var(3) + var(4) + var(5) + var(6) + var(7) + var(8) + var(9) + var(10)
 + var(11) + var(12) + var(13) = 1
constr(1):  var(14) + var(16) + var(17) + var(18) + var(19) + var(20) + var(21) + var(22) + var(23) + var(24)
 + var(25) + var(26) + var(27) = 1
constr(2):  var(28) + var(29) + var(31) + var(32) + var(33) + var(34) + var(35) + var(36) + var(37) + var(38)
 + var(39) + var(40) + var(41) = 1
constr(3):  var(42) + var(43) + var(44) + var(46) + var(47) + var(48) + var(49) + var(50) + var(51) + var(52)
 + var(53) + var(54) + var(55) = 1
constr(4):  var(56) + var(57) + var(58) + var(59) + var(61) + var(62) + var(63) + var(64) + var(65) + var(66)
 + var(67) + var(68) + var(69) = 1
constr(5):  var(70) + var(71) + var(72) + var(73) + var(74) + var(76) + var(77) + var(78) + var(79) + var(80)
 + var(81) + var(82) + var(83) = 1
constr(6):  var(84) + var(85) + var(86) + var(87) + var(88) + var(89) + var(91) + var(92) + var(93) + var(94)
 + var(95) + var(96) + var(97) = 1
constr(7):  var(98) + var(99) + var(100) + var(101) + var(102) + var(103) + var(104) + var(106) + var(107) + var(108)
 + var(109) + var(110) + var(111) = 1
constr(8):  var(112) + var(113) + var(114) + var(115) + var(116) + var(117) + var(118) + var(119) + var(121) + var(122)
 + var(123) + var(124) + var(125) = 1
constr(9):  var(126) + var(127) + var(128) + var(129) + var(130) + var(131) + var(132) + var(133) + var(134) + var(136)
 + var(137) + var(138) + var(139) = 1
constr(10):  var(140) + var(141) + var(142) + var(143) + var(144) + var(145) + var(146) + var(147) + var(148) + var(149)
 + var(151) + var(152) + var(153) = 1
constr(11):  var(154) + var(155) + var(156) + var(157) + var(158) + var(159) + var(160) + var(161) + var(162) + var(163)
 + var(164) + var(166) + var(167) = 1
constr(12):  var(168) + var(169) + var(170) + var(171) + var(172) + var(173) + var(174) + var(175) + var(176) + var(177)
 + var(178) + var(179) + var(181) = 1
constr(13):  var(182) + var(183) + var(184) + var(185) + var(186) + var(187) + var(188) + var(189) + var(190) + var(191)
 + var(192) + var(193) + var(194) = 1
constr(14):  var(14) + var(28) + var(42) + var(56) + var(70) + var(84) + var(98) + var(112) + var(126) + var(140)
 + var(154) + var(168) + var(182) = 1
constr(15):  var(1) + var(29) + var(43) + var(57) + var(71) + var(85) + var(99) + var(113) + var(127) + var(141)
 + var(155) + var(169) + var(183) = 1
constr(16):  var(2) + var(16) + var(44) + var(58) + var(72) + var(86) + var(100) + var(114) + var(128) + var(142)
 + var(156) + var(170) + var(184) = 1
constr(17):  var(3) + var(17) + var(31) + var(59) + var(73) + var(87) + var(101) + var(115) + var(129) + var(143)
 + var(157) + var(171) + var(185) = 1
constr(18):  var(4) + var(18) + var(32) + var(46) + var(74) + var(88) + var(102) + var(116) + var(130) + var(144)
 + var(158) + var(172) + var(186) = 1
constr(19):  var(5) + var(19) + var(33) + var(47) + var(61) + var(89) + var(103) + var(117) + var(131) + var(145)
 + var(159) + var(173) + var(187) = 1
constr(20):  var(6) + var(20) + var(34) + var(48) + var(62) + var(76) + var(104) + var(118) + var(132) + var(146)
 + var(160) + var(174) + var(188) = 1
constr(21):  var(7) + var(21) + var(35) + var(49) + var(63) + var(77) + var(91) + var(119) + var(133) + var(147)
 + var(161) + var(175) + var(189) = 1
constr(22):  var(8) + var(22) + var(36) + var(50) + var(64) + var(78) + var(92) + var(106) + var(134) + var(148)
 + var(162) + var(176) + var(190) = 1
constr(23):  var(9) + var(23) + var(37) + var(51) + var(65) + var(79) + var(93) + var(107) + var(121) + var(149)
 + var(163) + var(177) + var(191) = 1
constr(24):  var(10) + var(24) + var(38) + var(52) + var(66) + var(80) + var(94) + var(108) + var(122) + var(136)
 + var(164) + var(178) + var(192) = 1
constr(25):  var(11) + var(25) + var(39) + var(53) + var(67) + var(81) + var(95) + var(109) + var(123) + var(137)
 + var(151) + var(179) + var(193) = 1
constr(26):  var(12) + var(26) + var(40) + var(54) + var(68) + var(82) + var(96) + var(110) + var(124) + var(138)
 + var(152) + var(166) + var(194) = 1
constr(27):  var(13) + var(27) + var(41) + var(55) + var(69) + var(83) + var(97) + var(111) + var(125) + var(139)
 + var(153) + var(167) + var(181) = 1
constr(28):  -15 var(16) + var(197) - var(198) >= -14
constr(29):  -15 var(17) + var(197) - var(199) >= -14
constr(30):  -15 var(18) + var(197) - var(200) >= -14
constr(31):  -15 var(19) + var(197) - var(201) >= -14
constr(32):  -15 var(20) + var(197) - var(202) >= -14
constr(33):  -15 var(21) + var(197) - var(203) >= -14
constr(34):  -15 var(22) + var(197) - var(204) >= -14
constr(35):  -15 var(23) + var(197) - var(205) >= -14
constr(36):  -15 var(24) + var(197) - var(206) >= -14
constr(37):  -15 var(25) + var(197) - var(207) >= -14
constr(38):  -15 var(26) + var(197) - var(208) >= -14
constr(39):  -15 var(27) + var(197) - var(209) >= -14
constr(40):  -15 var(29) - var(197) + var(198) >= -14
constr(41):  -15 var(31) + var(198) - var(199) >= -14
constr(42):  -15 var(32) + var(198) - var(200) >= -14
constr(43):  -15 var(33) + var(198) - var(201) >= -14
constr(44):  -15 var(34) + var(198) - var(202) >= -14
constr(45):  -15 var(35) + var(198) - var(203) >= -14
constr(46):  -15 var(36) + var(198) - var(204) >= -14
constr(47):  -15 var(37) + var(198) - var(205) >= -14
constr(48):  -15 var(38) + var(198) - var(206) >= -14
constr(49):  -15 var(39) + var(198) - var(207) >= -14
constr(50):  -15 var(40) + var(198) - var(208) >= -14
constr(51):  -15 var(41) + var(198) - var(209) >= -14
constr(52):  -15 var(43) - var(197) + var(199) >= -14
constr(53):  -15 var(44) - var(198) + var(199) >= -14
constr(54):  -15 var(46) + var(199) - var(200) >= -14
constr(55):  -15 var(47) + var(199) - var(201) >= -14
constr(56):  -15 var(48) + var(199) - var(202) >= -14
constr(57):  -15 var(49) + var(199) - var(203) >= -14
constr(58):  -15 var(50) + var(199) - var(204) >= -14
constr(59):  -15 var(51) + var(199) - var(205) >= -14
constr(60):  -15 var(52) + var(199) - var(206) >= -14
constr(61):  -15 var(53) + var(199) - var(207) >= -14
constr(62):  -15 var(54) + var(199) - var(208) >= -14
constr(63):  -15 var(55) + var(199) - var(209) >= -14
constr(64):  -15 var(57) - var(197) + var(200) >= -14
constr(65):  -15 var(58) - var(198) + var(200) >= -14
constr(66):  -15 var(59) - var(199) + var(200) >= -14
constr(67):  -15 var(61) + var(200) - var(201) >= -14
constr(68):  -15 var(62) + var(200) - var(202) >= -14
constr(69):  -15 var(63) + var(200) - var(203) >= -14
constr(70):  -15 var(64) + var(200) - var(204) >= -14
constr(71):  -15 var(65) + var(200) - var(205) >= -14
constr(72):  -15 var(66) + var(200) - var(206) >= -14
constr(73):  -15 var(67) + var(200) - var(207) >= -14
constr(74):  -15 var(68) + var(200) - var(208) >= -14
constr(75):  -15 var(69) + var(200) - var(209) >= -14
constr(76):  -15 var(71) - var(197) + var(201) >= -14
constr(77):  -15 var(72) - var(198) + var(201) >= -14
constr(78):  -15 var(73) - var(199) + var(201) >= -14
constr(79):  -15 var(74) - var(200) + var(201) >= -14
constr(80):  -15 var(76) + var(201) - var(202) >= -14
constr(81):  -15 var(77) + var(201) - var(203) >= -14
constr(82):  -15 var(78) + var(201) - var(204) >= -14
constr(83):  -15 var(79) + var(201) - var(205) >= -14
constr(84):  -15 var(80) + var(201) - var(206) >= -14
constr(85):  -15 var(81) + var(201) - var(207) >= -14
constr(86):  -15 var(82) + var(201) - var(208) >= -14
constr(87):  -15 var(83) + var(201) - var(209) >= -14
constr(88):  -15 var(85) - var(197) + var(202) >= -14
constr(89):  -15 var(86) - var(198) + var(202) >= -14
constr(90):  -15 var(87) - var(199) + var(202) >= -14
constr(91):  -15 var(88) - var(200) + var(202) >= -14
constr(92):  -15 var(89) - var(201) + var(202) >= -14
constr(93):  -15 var(91) + var(202) - var(203) >= -14
constr(94):  -15 var(92) + var(202) - var(204) >= -14
constr(95):  -15 var(93) + var(202) - var(205) >= -14
constr(96):  -15 var(94) + var(202) - var(206) >= -14
constr(97):  -15 var(95) + var(202) - var(207) >= -14
constr(98):  -15 var(96) + var(202) - var(208) >= -14
constr(99):  -15 var(97) + var(202) - var(209) >= -14
constr(100):  -15 var(99) - var(197) + var(203) >= -14
constr(101):  -15 var(100) - var(198) + var(203) >= -14
constr(102):  -15 var(101) - var(199) + var(203) >= -14
constr(103):  -15 var(102) - var(200) + var(203) >= -14
constr(104):  -15 var(103) - var(201) + var(203) >= -14
constr(105):  -15 var(104) - var(202) + var(203) >= -14
constr(106):  -15 var(106) + var(203) - var(204) >= -14
constr(107):  -15 var(107) + var(203) - var(205) >= -14
constr(108):  -15 var(108) + var(203) - var(206) >= -14
constr(109):  -15 var(109) + var(203) - var(207) >= -14
constr(110):  -15 var(110) + var(203) - var(208) >= -14
constr(111):  -15 var(111) + var(203) - var(209) >= -14
constr(112):  -15 var(113) - var(197) + var(204) >= -14
constr(113):  -15 var(114) - var(198) + var(204) >= -14
constr(114):  -15 var(115) - var(199) + var(204) >= -14
constr(115):  -15 var(116) - var(200) + var(204) >= -14
constr(116):  -15 var(117) - var(201) + var(204) >= -14
constr(117):  -15 var(118) - var(202) + var(204) >= -14
constr(118):  -15 var(119) - var(203) + var(204) >= -14
constr(119):  -15 var(121) + var(204) - var(205) >= -14
constr(120):  -15 var(122) + var(204) - var(206) >= -14
constr(121):  -15 var(123) + var(204) - var(207) >= -14
constr(122):  -15 var(124) + var(204) - var(208) >= -14
constr(123):  -15 var(125) + var(204) - var(209) >= -14
constr(124):  -15 var(127) - var(197) + var(205) >= -14
constr(125):  -15 var(128) - var(198) + var(205) >= -14
constr(126):  -15 var(129) - var(199) + var(205) >= -14
constr(127):  -15 var(130) - var(200) + var(205) >= -14
constr(128):  -15 var(131) - var(201) + var(205) >= -14
constr(129):  -15 var(132) - var(202) + var(205) >= -14
constr(130):  -15 var(133) - var(203) + var(205) >= -14
constr(131):  -15 var(134) - var(204) + var(205) >= -14
constr(132):  -15 var(136) + var(205) - var(206) >= -14
constr(133):  -15 var(137) + var(205) - var(207) >= -14
constr(134):  -15 var(138) + var(205) - var(208) >= -14
constr(135):  -15 var(139) + var(205) - var(209) >= -14
constr(136):  -15 var(141) - var(197) + var(206) >= -14
constr(137):  -15 var(142) - var(198) + var(206) >= -14
constr(138):  -15 var(143) - var(199) + var(206) >= -14
constr(139):  -15 var(144) - var(200) + var(206) >= -14
constr(140):  -15 var(145) - var(201) + var(206) >= -14
constr(141):  -15 var(146) - var(202) + var(206) >= -14
constr(142):  -15 var(147) - var(203) + var(206) >= -14
constr(143):  -15 var(148) - var(204) + var(206) >= -14
constr(144):  -15 var(149) - var(205) + var(206) >= -14
constr(145):  -15 var(151) + var(206) - var(207) >= -14
constr(146):  -15 var(152) + var(206) - var(208) >= -14
constr(147):  -15 var(153) + var(206) - var(209) >= -14
constr(148):  -15 var(155) - var(197) + var(207) >= -14
constr(149):  -15 var(156) - var(198) + var(207) >= -14
constr(150):  -15 var(157) - var(199) + var(207) >= -14
constr(151):  -15 var(158) - var(200) + var(207) >= -14
constr(152):  -15 var(159) - var(201) + var(207) >= -14
constr(153):  -15 var(160) - var(202) + var(207) >= -14
constr(154):  -15 var(161) - var(203) + var(207) >= -14
constr(155):  -15 var(162) - var(204) + var(207) >= -14
constr(156):  -15 var(163) - var(205) + var(207) >= -14
constr(157):  -15 var(164) - var(206) + var(207) >= -14
constr(158):  -15 var(166) + var(207) - var(208) >= -14
constr(159):  -15 var(167) + var(207) - var(209) >= -14
constr(160):  -15 var(169) - var(197) + var(208) >= -14
constr(161):  -15 var(170) - var(198) + var(208) >= -14
constr(162):  -15 var(171) - var(199) + var(208) >= -14
constr(163):  -15 var(172) - var(200) + var(208) >= -14
constr(164):  -15 var(173) - var(201) + var(208) >= -14
constr(165):  -15 var(174) - var(202) + var(208) >= -14
constr(166):  -15 var(175) - var(203) + var(208) >= -14
constr(167):  -15 var(176) - var(204) + var(208) >= -14
constr(168):  -15 var(177) - var(205) + var(208) >= -14
constr(169):  -15 var(178) - var(206) + var(208) >= -14
constr(170):  -15 var(179) - var(207) + var(208) >= -14
constr(171):  -15 var(181) + var(208) - var(209) >= -14
constr(172):  -15 var(183) - var(197) + var(209) >= -14
constr(173):  -15 var(184) - var(198) + var(209) >= -14
constr(174):  -15 var(185) - var(199) + var(209) >= -14
constr(175):  -15 var(186) - var(200) + var(209) >= -14
constr(176):  -15 var(187) - var(201) + var(209) >= -14
constr(177):  -15 var(188) - var(202) + var(209) >= -14
constr(178):  -15 var(189) - var(203) + var(209) >= -14
constr(179):  -15 var(190) - var(204) + var(209) >= -14
constr(180):  -15 var(191) - var(205) + var(209) >= -14
constr(181):  -15 var(192) - var(206) + var(209) >= -14
constr(182):  -15 var(193) - var(207) + var(209) >= -14
constr(183):  -15 var(194) - var(208) + var(209) >= -14
Bounds
 0 <= var(0) <= 1
 0 <= var(1) <= 1
 0 <= var(2) <= 1
 0 <= var(3) <= 1
 0 <= var(4) <= 1
 0 <= var(5) <= 1
 0 <= var(6) <= 1
 0 <= var(7) <= 1
 0 <= var(8) <= 1
 0 <= var(9) <= 1
 0 <= var(10) <= 1
 0 <= var(11) <= 1
 0 <= var(12) <= 1
 0 <= var(13) <= 1
 0 <= var(14) <= 1
 0 <= var(15) <= 1
 0 <= var(16) <= 1
 0 <= var(17) <= 1
 0 <= var(18) <= 1
 0 <= var(19) <= 1
 0 <= var(20) <= 1
 0 <= var(21) <= 1
 0 <= var(22) <= 1
 0 <= var(23) <= 1
 0 <= var(24) <= 1
 0 <= var(25) <= 1
 0 <= var(26) <= 1
 0 <= var(27) <= 1
 0 <= var(28) <= 1
 0 <= var(29) <= 1
 0 <= var(30) <= 1
 0 <= var(31) <= 1
 0 <= var(32) <= 1
 0 <= var(33) <= 1
 0 <= var(34) <= 1
 0 <= var(35) <= 1
 0 <= var(36) <= 1
 0 <= var(37) <= 1
 0 <= var(38) <= 1
 0 <= var(39) <= 1
 0 <= var(40) <= 1
 0 <= var(41) <= 1
 0 <= var(42) <= 1
 0 <= var(43) <= 1
 0 <= var(44) <= 1
 0 <= var(45) <= 1
 0 <= var(46) <= 1
 0 <= var(47) <= 1
 0 <= var(48) <= 1
 0 <= var(49) <= 1
 0 <= var(50) <= 1
 0 <= var(51) <= 1
 0 <= var(52) <= 1
 0 <= var(53) <= 1
 0 <= var(54) <= 1
 0 <= var(55) <= 1
 0 <= var(56) <= 1
 0 <= var(57) <= 1
 0 <= var(58) <= 1
 0 <= var(59) <= 1
 0 <= var(60) <= 1
 0 <= var(61) <= 1
 0 <= var(62) <= 1
 0 <= var(63) <= 1
 0 <= var(64) <= 1
 0 <= var(65) <= 1
 0 <= var(66) <= 1
 0 <= var(67) <= 1
 0 <= var(68) <= 1
 0 <= var(69) <= 1
 0 <= var(70) <= 1
 0 <= var(71) <= 1
 0 <= var(72) <= 1
 0 <= var(73) <= 1
 0 <= var(74) <= 1
 0 <= var(75) <= 1
 0 <= var(76) <= 1
 0 <= var(77) <= 1
 0 <= var(78) <= 1
 0 <= var(79) <= 1
 0 <= var(80) <= 1
 0 <= var(81) <= 1
 0 <= var(82) <= 1
 0 <= var(83) <= 1
 0 <= var(84) <= 1
 0 <= var(85) <= 1
 0 <= var(86) <= 1
 0 <= var(87) <= 1
 0 <= var(88) <= 1
 0 <= var(89) <= 1
 0 <= var(90) <= 1
 0 <= var(91) <= 1
 0 <= var(92) <= 1
 0 <= var(93) <= 1
 0 <= var(94) <= 1
 0 <= var(95) <= 1
 0 <= var(96) <= 1
 0 <= var(97) <= 1
 0 <= var(98) <= 1
 0 <= var(99) <= 1
 0 <= var(100) <= 1
 0 <= var(101) <= 1
 0 <= var(102) <= 1
 0 <= var(103) <= 1
 0 <= var(104) <= 1
 0 <= var(105) <= 1
 0 <= var(106) <= 1
 0 <= var(107) <= 1
 0 <= var(108) <= 1
 0 <= var(109) <= 1
 0 <= var(110) <= 1
 0 <= var(111) <= 1
 0 <= var(112) <= 1
 0 <= var(113) <= 1
 0 <= var(114) <= 1
 0 <= var(115) <= 1
 0 <= var(116) <= 1
 0 <= var(117) <= 1
 0 <= var(118) <= 1
 0 <= var(119) <= 1
 0 <= var(120) <= 1
 0 <= var(121) <= 1
 0 <= var(122) <= 1
 0 <= var(123) <= 1
 0 <= var(124) <= 1
 0 <= var(125) <= 1
 0 <= var(126) <= 1
 0 <= var(127) <= 1
 0 <= var(128) <= 1
 0 <= var(129) <= 1
 0 <= var(130) <= 1
 0 <= var(131) <= 1
 0 <= var(132) <= 1
 0 <= var(133) <= 1
 0 <= var(134) <= 1
 0 <= var(135) <= 1
 0 <= var(136) <= 1
 0 <= var(137) <= 1
 0 <= var(138) <= 1
 0 <= var(139) <= 1
 0 <= var(140) <= 1
 0 <= var(141) <= 1
 0 <= var(142) <= 1
 0 <= var(143) <= 1
 0 <= var(144) <= 1
 0 <= var(145) <= 1
 0 <= var(146) <= 1
 0 <= var(147) <= 1
 0 <= var(148) <= 1
 0 <= var(149) <= 1
 0 <= var(150) <= 1
 0 <= var(151) <= 1
 0 <= var(152) <= 1
 0 <= var(153) <= 1
 0 <= var(154) <= 1
 0 <= var(155) <= 1
 0 <= var(156) <= 1
 0 <= var(157) <= 1
 0 <= var(158) <= 1
 0 <= var(159) <= 1
 0 <= var(160) <= 1
 0 <= var(161) <= 1
 0 <= var(162) <= 1
 0 <= var(163) <= 1
 0 <= var(164) <= 1
 0 <= var(165) <= 1
 0 <= var(166) <= 1
 0 <= var(167) <= 1
 0 <= var(168) <= 1
 0 <= var(169) <= 1
 0 <= var(170) <= 1
 0 <= var(171) <= 1
 0 <= var(172) <= 1
 0 <= var(173) <= 1
 0 <= var(174) <= 1
 0 <= var(175) <= 1
 0 <= var(176) <= 1
 0 <= var(177) <= 1
 0 <= var(178) <= 1
 0 <= var(179) <= 1
 0 <= var(180) <= 1
 0 <= var(181) <= 1
 0 <= var(182) <= 1
 0 <= var(183) <= 1
 0 <= var(184) <= 1
 0 <= var(185) <= 1
 0 <= var(186) <= 1
 0 <= var(187) <= 1
 0 <= var(188) <= 1
 0 <= var(189) <= 1
 0 <= var(190) <= 1
 0 <= var(191) <= 1
 0 <= var(192) <= 1
 0 <= var(193) <= 1
 0 <= var(194) <= 1
 0 <= var(195) <= 1
Integers
var(0) var(1) var(2) var(3) var(4) var(5) var(6) var(7) var(8) var(9) 
var(10) var(11) var(12) var(13) var(14) var(15) var(16) var(17) var(18) var(19) 
var(20) var(21) var(22) var(23) var(24) var(25) var(26) var(27) var(28) var(29) 
var(30) var(31) var(32) var(33) var(34) var(35) var(36) var(37) var(38) var(39) 
var(40) var(41) var(42) var(43) var(44) var(45) var(46) var(47) var(48) var(49) 
var(50) var(51) var(52) var(53) var(54) var(55) var(56) var(57) var(58) var(59) 
var(60) var(61) var(62) var(63) var(64) var(65) var(66) var(67) var(68) var(69) 
var(70) var(71) var(72) var(73) var(74) var(75) var(76) var(77) var(78) var(79) 
var(80) var(81) var(82) var(83) var(84) var(85) var(86) var(87) var(88) var(89) 
var(90) var(91) var(92) var(93) var(94) var(95) var(96) var(97) var(98) var(99) 
var(100) var(101) var(102) var(103) var(104) var(105) var(106) var(107) var(108) var(109) 
var(110) var(111) var(112) var(113) var(114) var(115) var(116) var(117) var(118) var(119) 
var(120) var(121) var(122) var(123) var(124) var(125) var(126) var(127) var(128) var(129) 
var(130) var(131) var(132) var(133) var(134) var(135) var(136) var(137) var(138) var(139) 
var(140) var(141) var(142) var(143) var(144) var(145) var(146) var(147) var(148) var(149) 
var(150) var(151) var(152) var(153) var(154) var(155) var(156) var(157) var(158) var(159) 
var(160) var(161) var(162) var(163) var(164) var(165) var(166) var(167) var(168) var(169) 
var(170) var(171) var(172) var(173) var(174) var(175) var(176) var(177) var(178) var(179) 
var(180) var(181) var(182) var(183) var(184) var(185) var(186) var(187) var(188) var(189) 
var(190) var(191) var(192) var(193) var(194) var(195) 
End
